datasets/2-dimensional/CL_01_25_10.vbp
2
1000 1000 
25
285 367 30
303 314 72
272 297 4
160 182 88
334 236 54
359 225 64
203 315 90
232 175 26
313 169 94
113 166 28
298 131 72
135 132 49
191 334 54
232 105 19
125 111 28
136 220 61
333 396 84
281 109 23
249 123 67
301 105 53
306 123 54
229 343 16
137 132 9
198 156 54
377 281 77
