datasets/2-dimensional/CL_01_25_10.txt
1000 1000 
0 30 285 367 
1 72 303 314 
2 4 272 297 
3 88 160 182 
4 54 334 236 
5 64 359 225 
6 90 203 315 
7 26 232 175 
8 94 313 169 
9 28 113 166 
10 72 298 131 
11 49 135 132 
12 54 191 334 
13 19 232 105 
14 28 125 111 
15 61 136 220 
16 84 333 396 
17 23 281 109 
18 67 249 123 
19 53 301 105 
20 54 306 123 
21 16 229 343 
22 9 137 132 
23 54 198 156 
24 77 377 281 
